====================================================================================================================
File name: 200_40_45_9.def
Creation date: Mon Nov 24 20:40:31 CET 2014
Website: http://imopse.ii.pwr.edu.pl/
Reference:
Myszkowski P. B., Skowronski M. E., Olech L., Oslizlo K.,
Hybrid Ant Colony Optimization in solving Multi-Skill Resource-Constrained Project Scheduling Problem,
Soft Computing, DOI: DOI 10.1007/s00500-014-1455-x
====================================================================================================================
General characteristics:
Tasks: 200
Resources: 40
Precedence relations: 45
Number of skill types: 9
====================================================================================================================
ResourceID 	 Salary 	 Skills
1	 	 	19.7	 	 Q7: 1 	  Q0: 1 	  Q8: 0 	  Q2: 1 	  Q1: 2 	  Q4: 0
2	 	 	59.9	 	 Q0: 1 	  Q7: 1 	  Q5: 1 	  Q1: 1 	  Q3: 2 	  Q8: 0
3	 	 	91.2	 	 Q1: 0 	  Q3: 0 	  Q0: 1 	  Q8: 0 	  Q6: 0 	  Q2: 0
4	 	 	10.9	 	 Q3: 1 	  Q1: 1 	  Q6: 0 	  Q7: 2 	  Q0: 2 	  Q8: 2
5	 	 	61.9	 	 Q5: 2 	  Q7: 0 	  Q4: 1 	  Q1: 2 	  Q6: 1 	  Q3: 1
6	 	 	32.0	 	 Q4: 0 	  Q0: 2 	  Q7: 0 	  Q6: 1 	  Q5: 2 	  Q2: 2
7	 	 	72.7	 	 Q6: 2 	  Q3: 2 	  Q2: 2 	  Q0: 1 	  Q7: 2 	  Q1: 2
8	 	 	65.3	 	 Q6: 2 	  Q8: 1 	  Q3: 1 	  Q0: 0 	  Q5: 1 	  Q7: 0
9	 	 	14.8	 	 Q1: 1 	  Q7: 0 	  Q4: 2 	  Q3: 1 	  Q0: 1 	  Q8: 1
10	 	 	85.9	 	 Q7: 2 	  Q6: 1 	  Q1: 2 	  Q0: 0 	  Q4: 0 	  Q3: 0
11	 	 	52.5	 	 Q3: 0 	  Q6: 0 	  Q7: 1 	  Q4: 2 	  Q0: 1 	  Q8: 1
12	 	 	91.2	 	 Q5: 1 	  Q6: 1 	  Q7: 0 	  Q1: 1 	  Q0: 0 	  Q4: 1
13	 	 	59.9	 	 Q1: 2 	  Q6: 1 	  Q7: 2 	  Q3: 0 	  Q0: 0 	  Q2: 2
14	 	 	46.0	 	 Q3: 0 	  Q4: 0 	  Q6: 0 	  Q5: 2 	  Q8: 2 	  Q0: 0
15	 	 	16.1	 	 Q0: 0 	  Q4: 1 	  Q6: 2 	  Q7: 1 	  Q1: 0 	  Q2: 0
16	 	 	71.0	 	 Q8: 0 	  Q0: 1 	  Q4: 0 	  Q2: 1 	  Q6: 1 	  Q5: 0
17	 	 	38.7	 	 Q4: 0 	  Q7: 2 	  Q6: 2 	  Q5: 0 	  Q1: 1 	  Q0: 1
18	 	 	31.7	 	 Q5: 1 	  Q7: 1 	  Q2: 1 	  Q0: 2 	  Q6: 2 	  Q4: 2
19	 	 	99.0	 	 Q2: 0 	  Q6: 0 	  Q3: 2 	  Q4: 2 	  Q5: 2 	  Q0: 0
20	 	 	63.4	 	 Q8: 0 	  Q3: 0 	  Q6: 1 	  Q5: 1 	  Q2: 1 	  Q0: 1
21	 	 	23.0	 	 Q1: 1 	  Q6: 1 	  Q8: 1 	  Q4: 2 	  Q2: 1 	  Q7: 2
22	 	 	83.8	 	 Q4: 2 	  Q5: 2 	  Q8: 2 	  Q7: 1 	  Q1: 1 	  Q3: 1
23	 	 	47.9	 	 Q6: 2 	  Q7: 2 	  Q8: 0 	  Q2: 1 	  Q0: 0 	  Q1: 0
24	 	 	49.5	 	 Q0: 1 	  Q3: 2 	  Q6: 2 	  Q5: 2 	  Q1: 1 	  Q4: 2
25	 	 	29.8	 	 Q2: 1 	  Q1: 1 	  Q8: 0 	  Q7: 2 	  Q0: 1 	  Q4: 0
26	 	 	84.1	 	 Q6: 1 	  Q5: 0 	  Q8: 0 	  Q2: 1 	  Q0: 0 	  Q4: 0
27	 	 	29.9	 	 Q4: 0 	  Q3: 1 	  Q6: 1 	  Q0: 1 	  Q1: 1 	  Q2: 2
28	 	 	23.7	 	 Q0: 0 	  Q6: 2 	  Q8: 0 	  Q4: 2 	  Q3: 0 	  Q2: 0
29	 	 	70.2	 	 Q7: 1 	  Q6: 2 	  Q5: 1 	  Q4: 1 	  Q8: 0 	  Q2: 1
30	 	 	84.5	 	 Q3: 2 	  Q8: 2 	  Q7: 0 	  Q4: 2 	  Q2: 1 	  Q1: 1
31	 	 	88.6	 	 Q5: 1 	  Q0: 0 	  Q4: 0 	  Q3: 1 	  Q7: 2 	  Q2: 0
32	 	 	70.1	 	 Q7: 2 	  Q8: 2 	  Q6: 1 	  Q0: 0 	  Q4: 0 	  Q2: 1
33	 	 	66.1	 	 Q8: 0 	  Q4: 2 	  Q2: 2 	  Q6: 2 	  Q1: 1 	  Q3: 1
34	 	 	16.8	 	 Q6: 1 	  Q5: 1 	  Q4: 1 	  Q3: 1 	  Q8: 2 	  Q1: 0
35	 	 	28.7	 	 Q4: 2 	  Q8: 2 	  Q0: 0 	  Q1: 2 	  Q5: 2 	  Q7: 0
36	 	 	38.7	 	 Q8: 1 	  Q2: 2 	  Q0: 0 	  Q7: 0 	  Q4: 2 	  Q5: 2
37	 	 	78.3	 	 Q2: 1 	  Q5: 0 	  Q7: 0 	  Q1: 0 	  Q3: 0 	  Q4: 2
38	 	 	49.1	 	 Q3: 2 	  Q8: 0 	  Q4: 2 	  Q0: 1 	  Q5: 0 	  Q7: 1
39	 	 	36.0	 	 Q8: 0 	  Q2: 2 	  Q6: 0 	  Q5: 0 	  Q3: 0 	  Q1: 0
40	 	 	26.1	 	 Q8: 0 	  Q5: 2 	  Q0: 0 	  Q7: 0 	  Q4: 2 	  Q1: 2
====================================================================================================================
TaskID 	 Duration 	 Skill 	 Predecessor IDs
1	 	 	16	 Q2: 0
2	 	 	27	 Q3: 0
3	 	 	9	 Q6: 2
4	 	 	32	 Q5: 2
5	 	 	40	 Q1: 0
6	 	 	28	 Q8: 0
7	 	 	11	 Q2: 2
8	 	 	17	 Q2: 1
9	 	 	28	 Q1: 2
10	 	 	12	 Q0: 0
11	 	 	12	 Q8: 2
12	 	 	35	 Q3: 0
13	 	 	26	 Q2: 1
14	 	 	22	 Q5: 0
15	 	 	38	 Q8: 2
16	 	 	19	 Q1: 0
17	 	 	26	 Q6: 0
18	 	 	27	 Q2: 1
19	 	 	28	 Q4: 0
20	 	 	19	 Q7: 1
21	 	 	25	 Q7: 0
22	 	 	29	 Q7: 2
23	 	 	9	 Q4: 2
24	 	 	26	 Q7: 1
25	 	 	40	 Q5: 0
26	 	 	20	 Q2: 1
27	 	 	11	 Q3: 0
28	 	 	40	 Q4: 2
29	 	 	21	 Q3: 1
30	 	 	39	 Q5: 0	 	19
31	 	 	39	 Q0: 1
32	 	 	28	 Q4: 1
33	 	 	33	 Q8: 2
34	 	 	18	 Q3: 0
35	 	 	17	 Q2: 1
36	 	 	16	 Q1: 2
37	 	 	10	 Q8: 2
38	 	 	38	 Q1: 0
39	 	 	37	 Q8: 2
40	 	 	38	 Q4: 2
41	 	 	24	 Q4: 1
42	 	 	20	 Q1: 0
43	 	 	34	 Q3: 0
44	 	 	26	 Q1: 2
45	 	 	39	 Q0: 1
46	 	 	40	 Q4: 2	 	44
47	 	 	28	 Q6: 1
48	 	 	27	 Q8: 2	 	40
49	 	 	22	 Q4: 1
50	 	 	38	 Q7: 1
51	 	 	18	 Q3: 1	 	25
52	 	 	13	 Q4: 2
53	 	 	36	 Q5: 1
54	 	 	13	 Q6: 1
55	 	 	21	 Q1: 1
56	 	 	38	 Q3: 2
57	 	 	18	 Q6: 1	 	22
58	 	 	37	 Q7: 1
59	 	 	27	 Q4: 0
60	 	 	35	 Q0: 1
61	 	 	16	 Q4: 2
62	 	 	9	 Q0: 0
63	 	 	39	 Q1: 1	 	47
64	 	 	30	 Q2: 2
65	 	 	23	 Q0: 0
66	 	 	17	 Q6: 2
67	 	 	39	 Q8: 2
68	 	 	39	 Q1: 1
69	 	 	32	 Q5: 1
70	 	 	15	 Q0: 2
71	 	 	24	 Q6: 2	 	24
72	 	 	36	 Q8: 1
73	 	 	22	 Q5: 0
74	 	 	21	 Q4: 1
75	 	 	36	 Q0: 1
76	 	 	33	 Q5: 0
77	 	 	38	 Q4: 2
78	 	 	39	 Q7: 0
79	 	 	38	 Q1: 2
80	 	 	25	 Q5: 0
81	 	 	30	 Q0: 0
82	 	 	25	 Q5: 0
83	 	 	10	 Q8: 0
84	 	 	18	 Q4: 2
85	 	 	24	 Q7: 1	 	31
86	 	 	21	 Q8: 1
87	 	 	15	 Q5: 2
88	 	 	30	 Q6: 2
89	 	 	28	 Q0: 0
90	 	 	40	 Q4: 2	 	12
91	 	 	31	 Q0: 2
92	 	 	21	 Q0: 0
93	 	 	26	 Q2: 2
94	 	 	30	 Q5: 1
95	 	 	22	 Q5: 2	 	64
96	 	 	34	 Q3: 2
97	 	 	33	 Q2: 1
98	 	 	24	 Q7: 2
99	 	 	17	 Q5: 1	 	10	15
100	 	 	28	 Q3: 2	 	42
101	 	 	34	 Q6: 2
102	 	 	36	 Q6: 0	 	60
103	 	 	32	 Q8: 2
104	 	 	27	 Q0: 0
105	 	 	25	 Q6: 0
106	 	 	37	 Q1: 2
107	 	 	30	 Q2: 0
108	 	 	36	 Q6: 0
109	 	 	17	 Q2: 2
110	 	 	26	 Q4: 0
111	 	 	26	 Q6: 2
112	 	 	30	 Q6: 1	 	106
113	 	 	24	 Q4: 1
114	 	 	39	 Q3: 1
115	 	 	14	 Q0: 1	 	59
116	 	 	12	 Q3: 0
117	 	 	24	 Q1: 2	 	105	55
118	 	 	19	 Q0: 2	 	18
119	 	 	26	 Q7: 0
120	 	 	18	 Q6: 0
121	 	 	32	 Q7: 2
122	 	 	25	 Q7: 2
123	 	 	19	 Q8: 1	 	49
124	 	 	34	 Q0: 0
125	 	 	11	 Q4: 1
126	 	 	27	 Q0: 0
127	 	 	19	 Q6: 2
128	 	 	16	 Q2: 1
129	 	 	27	 Q7: 1
130	 	 	21	 Q3: 1
131	 	 	21	 Q8: 2
132	 	 	20	 Q8: 0	 	64
133	 	 	37	 Q6: 2
134	 	 	28	 Q4: 2
135	 	 	37	 Q0: 0
136	 	 	30	 Q5: 2	 	29
137	 	 	18	 Q6: 2	 	16
138	 	 	32	 Q5: 0
139	 	 	18	 Q4: 1
140	 	 	15	 Q5: 1
141	 	 	25	 Q2: 1	 	22
142	 	 	32	 Q8: 2
143	 	 	39	 Q5: 1
144	 	 	28	 Q7: 1
145	 	 	33	 Q5: 0	 	6
146	 	 	30	 Q1: 0	 	97
147	 	 	20	 Q1: 0
148	 	 	17	 Q4: 0
149	 	 	25	 Q5: 1	 	74
150	 	 	23	 Q7: 2
151	 	 	20	 Q8: 1	 	13
152	 	 	34	 Q2: 2
153	 	 	12	 Q0: 1	 	21	9
154	 	 	36	 Q0: 2
155	 	 	40	 Q3: 1
156	 	 	25	 Q6: 1
157	 	 	40	 Q3: 0
158	 	 	38	 Q5: 1
159	 	 	25	 Q0: 2
160	 	 	38	 Q1: 0	 	122
161	 	 	16	 Q2: 0
162	 	 	22	 Q5: 1
163	 	 	35	 Q6: 0
164	 	 	17	 Q4: 0
165	 	 	12	 Q1: 0
166	 	 	25	 Q3: 0
167	 	 	35	 Q2: 0
168	 	 	10	 Q1: 0
169	 	 	30	 Q4: 0
170	 	 	15	 Q8: 2
171	 	 	34	 Q1: 0	 	94
172	 	 	22	 Q8: 1	 	10	22
173	 	 	26	 Q8: 2
174	 	 	37	 Q4: 0
175	 	 	39	 Q3: 2	 	95
176	 	 	12	 Q8: 1
177	 	 	28	 Q3: 2
178	 	 	12	 Q0: 2
179	 	 	27	 Q7: 1	 	125
180	 	 	28	 Q3: 1	 	131
181	 	 	32	 Q1: 2
182	 	 	15	 Q5: 0
183	 	 	22	 Q1: 0
184	 	 	17	 Q1: 1
185	 	 	32	 Q6: 1
186	 	 	33	 Q8: 0
187	 	 	10	 Q2: 0	 	136
188	 	 	38	 Q5: 2	 	166
189	 	 	16	 Q5: 1
190	 	 	39	 Q6: 1	 	38	10
191	 	 	37	 Q1: 0	 	179
192	 	 	20	 Q4: 0
193	 	 	17	 Q8: 2
194	 	 	35	 Q7: 0
195	 	 	29	 Q7: 1	 	128
196	 	 	36	 Q2: 0
197	 	 	25	 Q0: 2
198	 	 	10	 Q8: 0
199	 	 	34	 Q2: 0	 	188
200	 	 	30	 Q8: 0	 	125
====================================================================================================================
